Traveling Salesman Problem/TSP_generados/Aleatorio1621103266_7.tsp
NAME: Aleatorio1621103266_7.tsp
COMMENT: Randomly generated scenario
TYPE: TSP
DIMENSION: 7
EDGE_WEIGHT_TYPE: ATT
NODE_COORD_SECTION
1 37.2 12.62
2 14.8 41.12
3 18.2 26.14
4 43.38 38.05
5 38.63 49.75
6 25.13 27.22
7 40.01 46.12
