Traveling Salesman Problem/TSP_generados/Aleatorio1621103266_7.opt.tour
NAME: Aleatorio1621103266_7.opt.tour
COMMENT: Optimal solution for Aleatorio1621103266_7 (105.4614101040307)
TYPE: TOUR
DIMENSION: 7
TOUR_SECTION
1 4 7 5 2 3 6
-1
EOF
